0 198 
1 201 
2 201 
3 199 
4 203 
5 200 
6 197 
7 200 
8 200 
9 199 
10 197 
11 191 
12 189 
13 187 
14 180 
15 179 
16 177 
17 178 
18 177 
19 175 
20 169 
21 171 
22 171 
23 167 
24 164 
25 164 
26 158 
27 158 
28 161 
29 162 
30 160 
31 155 
32 150 
33 149 
34 147 
35 148 
36 146 
37 142 
38 138 
39 135 
40 134 
41 130 
42 131 
43 132 
44 131 
45 128 
46 125 
47 124 
48 125 
49 123 
50 124 
51 118 
52 119 
53 117 
54 115 
55 111 
56 109 
57 112 
58 110 
59 106 
60 102 
61 98 
62 96 
63 95 
64 93 
65 92 
66 91 
67 89 
68 91 
69 88 
70 84 
71 82 
72 85 
73 84 
74 81 
75 80 
76 77 
77 79 
78 80 
79 76 
80 76 
81 75 
82 70 
83 70 
84 67 
85 64 
86 63 
87 59 
88 54 
89 55 
90 56 
91 52 
92 49 
93 48 
94 42 
95 35 
96 33 
97 37 
98 34 
99 33 
100 33 
101 31 
102 30 
103 32 
104 30 
105 27 
106 25 
107 24 
108 22 
109 24 
110 26 
111 24 
112 23 
113 23 
114 22 
115 24 
116 22 
117 24 
118 23 
119 23 
120 21 
121 18 
122 15 
123 16 
124 17 
125 14 
126 14 
127 10 
128 9 
129 8 
130 10 
131 9 
132 8 
133 8 
134 8 
135 7 
136 7 
137 5 
138 6 
139 2 
140 2 
141 0 
142 0 

